x
1
2
1
2
1
2
1
2
1
2
1
10
14
10
14
10
14
10
14
10
14
10
14
10
14
10
14
10
21
29
30
32
30
32
30
32
30
32
30
32
30
32
30
29
30
29
21
29
21
29
21
29
21
29
21
29
26
25
26
25
26
25
26
25
26
25
23
25
23
25
23
25
23
25
23
25
23
20
23
20
23
20
23
20
22
24
22
24
22
24
22
24
22
24
22
24
22
24
22
24
22
20
22
20
22
20
15
13
15
13
15
13
15
13
15
13
15
13
15
13
15
13
15
13
15
8
9
8
9
8
9
8
9
8
9
8
9
8
9
8
9
8
9
8
7
6
7
6
7
6
7
6
7
6
7
8
7
5
3
5
3
4
3
4
3
7
3
7
15
20
28
27
28
27
28
27
28
27
28
19
18
19
18
19
18
19
18
19
17
19
17
19
16
19
16
19
16
12
11
12
11
12
16
12
16
12
16
12
7
12
7
12
28
33
34
33
34
33
34
33
34
33
34
33
34
36
31
36
31
36
31
36
31
36
31
36
31
34
31
34
31
28
20
28
31
37
35
37
35
37
38
37
38
37
38
31
38
29
38
29
38
29
38
12
38
12
38
1
38
1
1
1
